# Data source #
Database                                HITRAN
Molecule                                H2O
Isotopologue                            1H2-16O
Dataset                                 H2O-HITRAN
SpeciesID                               11


# File path #
ReadPath                                /home2/p321409/scratch/opacity_lbl/hitran/
SavePath                                /home2/p321409/scratch/opacity_xsc/exocross/
LogFilePath                             /home2/p321409/scratch/opacity_xsc/exocross/recent.log


# Functions #
Conversion                              0
PartitionFunctions                      0
SpecificHeats                           0
CoolingFunctions                        0
Lifetimes                               0
OscillatorStrengths                     0
StickSpectra                            0
CrossSections                           1


# Cores and chunks #
NCPUtrans                               10
NCPUfiles                               4
ChunkSize                               1000000
RunMode                                 GPU                       # CPU(default) or GPU
GPUBackend                              AUTO                      # AUTO, CUDA, PyTorch-CUDA, CuPy-CUDA, or MPS (only used when RunMode=GPU)
GPUBatchLines                           8192                      # GPU line-batch size (only used when RunMode=GPU)
GPUBatchGrid                            1024                       # GPU grid-batch size (only used when RunMode=GPU)


# Parquet transition cache #
Cache                                   NONE                      # None(default, disabled), Auto (memory for small inputs, Parquet for large), or Parquet (always cache to disk)
CacheDir                                AUTO                      # AUTO(default) uses a source-adjacent .pyexocross_cache/ directory; or set an explicit path (only used when Cache!=None)
MaxMemory                               512                       # Max MB of transition data kept in memory before spilling to Parquet (only used when Cache=Auto)
RefreshCache(Y/N)                       N                         # If Y, rebuild matching Parquet cache files instead of reusing them (only used when Cache!=None)


# Quantum numbers for conversion, stick spectra and cross sections #
QNslabel                                v1     v2    v3     J     Ka    Kc    F    Sym
QNsformat                               %2d    %2d   %2d    %3d   %3d   %3d   %5s  %1s


# Calculate partition, specific heats or cooling functions #
Ntemp                                   1                         # The number of temperature steps
Tmax                                    5000                      # Maximal temperature in K


# Calculate lifetimes #
Compress(Y/N)                           Y                         # If Y, save as .states.bz2 file; otherwise, save as .states file


# Calculate oscillator strengths #
gf/f                                    gf
PlotOscillatorStrength(Y/N)             N
PlotOscillatorStrengthMethod            log                       # Plot in linear (lin) or logarithm (log)
PlotOscillatorStrengthWnWl              wn         cm-1           # Wavenumber (wn in unit cm-1) or wavelength (wl in unit[um or nm])
Y-axisLimitOscillatorStrength           1e-30                     # Default value is 1e-30



# Calculate stick spectra or cross sections #
LTE/Non-LTE                             LTE                       # 'LTE' or 'Non-LTE'
Temperatures                            1000              # Temperature in unit of K
WnWlUnit                                wn         cm-1           # Wavenumber (wn in unit of cm-1) or wavelength (wl in unit of um or nm)
Range                                   10         50000          # Same unit as WnWlUnit
Absorption/Emission                     Absorption                # 'Absorption' or 'Emission'
UncFilter(Y/N)                          Y          0.01           # If Y, default value 0.01 cm-1
Threshold(Y/N)                          Y          1e-30          # If Y, default value 1e-30 cm/molecule
QNsFilter(Y/N)                          N          v1[]    v2[]    v3[]    J[]    Ka[]    Kc[]    F[]    Sym[]


# Calculate stick spectra #
PlotStickSpectra(Y/N)                   Y
PlotStickSpectraMethod                  log                       # Plot in linear (lin) or logarithm (log)
PlotStickSpectraWnWl                    wn         cm-1           # Wavenumber (wn in unit cm-1) or wavelength (wl in unit[nm or um])
Y-axisLimitStickSpectra                 1e-32                     # Default value is 1e-30 cm/molecule


# Calculate cross sections #
Pressures                               1e1
Npoints/BinSize                         BinSize   0.025
Broadeners                              Default
Ratios                                  1.0
Profile                                 SciPyVoigt
Wavenumber(wn)/wavelength(wl)           wn                        # 'wn' or 'wl'
PredissocXsec(Y/N)                      N
CompressXsec(Y/N)                       Y                         # If Y, save as .xsec.bz2 (fast bz2, speed over ratio); otherwise, save as .xsec
Cutoff(Y/N)                             Y          40            # If Y, default value 25 cm-1
DopplerHWHM(Y/N)                        N          0.1            # Set Doppler HWHM as a constant
LorentzianHWHM(Y/N)                     N          0.5            # Set Lorentzian HWHM as a constant
PlotCrossSection(Y/N)                   Y
PlotCrossSectionMethod                  log                       # Plot in linear (lin) or logarithm (log)
PlotCrossSectionWnWl                    wn         cm-1           # Wavenumber (wn in unit cm-1) or wavelength (wl in unit[nm or um])
Y-axisLimitXsec                         1e-30                     # Default value is 1e-30 cm2/molecule